p cnf 965 2478
51 -2 -698 0
-51 2 0
-51 698 0
52 -51 -699 0
-52 51 0
-52 699 0
53 -5 -4 0
-53 5 0
-53 4 0
54 -53 -700 0
-54 53 0
-54 700 0
55 -701 -702 0
-55 701 0
-55 702 0
56 -703 -7 0
-56 703 0
-56 7 0
57 -56 -9 0
-57 56 0
-57 9 0
58 -704 -55 0
-58 704 0
-58 55 0
59 -11 -705 0
-59 11 0
-59 705 0
60 -59 -706 0
-60 59 0
-60 706 0
61 -707 -58 0
-61 707 0
-61 58 0
62 -13 -698 0
-62 13 0
-62 698 0
63 -62 -708 0
-63 62 0
-63 708 0
64 -709 -61 0
-64 709 0
-64 61 0
65 -710 -12 0
-65 710 0
-65 12 0
66 -65 -711 0
-66 65 0
-66 711 0
67 -712 -64 0
-67 712 0
-67 64 0
68 -17 -12 0
-68 17 0
-68 12 0
69 -68 -18 0
-69 68 0
-69 18 0
70 -713 -67 0
-70 713 0
-70 67 0
71 -714 -19 0
-71 714 0
-71 19 0
72 -71 -6 0
-72 71 0
-72 6 0
73 -715 -70 0
-73 715 0
-73 70 0
74 -22 -21 0
-74 22 0
-74 21 0
75 -74 -716 0
-75 74 0
-75 716 0
76 -717 -73 0
-76 717 0
-76 73 0
77 -24 -718 0
-77 24 0
-77 718 0
78 -77 -23 0
-78 77 0
-78 23 0
79 -719 -76 0
-79 719 0
-79 76 0
80 -26 -720 0
-80 26 0
-80 720 0
81 -80 -24 0
-81 80 0
-81 24 0
82 -721 -79 0
-82 721 0
-82 79 0
83 -722 -723 0
-83 722 0
-83 723 0
84 -83 -724 0
-84 83 0
-84 724 0
85 -725 -82 0
-85 725 0
-85 82 0
86 -726 -723 0
-86 726 0
-86 723 0
87 -86 -727 0
-87 86 0
-87 727 0
88 -728 -85 0
-88 728 0
-88 85 0
89 -15 -729 0
-89 15 0
-89 729 0
90 -89 -6 0
-90 89 0
-90 6 0
91 -730 -88 0
-91 730 0
-91 88 0
92 -731 -27 0
-92 731 0
-92 27 0
93 -92 -16 0
-93 92 0
-93 16 0
94 -732 -91 0
-94 732 0
-94 91 0
95 -10 -698 0
-95 10 0
-95 698 0
96 -95 -733 0
-96 95 0
-96 733 0
97 -734 -94 0
-97 734 0
-97 94 0
98 -708 -5 0
-98 708 0
-98 5 0
99 -98 -735 0
-99 98 0
-99 735 0
100 -736 -97 0
-100 736 0
-100 97 0
101 -737 -738 0
-101 737 0
-101 738 0
102 -101 -739 0
-102 101 0
-102 739 0
103 -740 -100 0
-103 740 0
-103 100 0
104 -731 -741 0
-104 731 0
-104 741 0
105 -104 -742 0
-105 104 0
-105 742 0
106 -743 -103 0
-106 743 0
-106 103 0
107 -25 -15 0
-107 25 0
-107 15 0
108 -107 -35 0
-108 107 0
-108 35 0
109 -744 -106 0
-109 744 0
-109 106 0
110 -36 -8 0
-110 36 0
-110 8 0
111 -110 -716 0
-111 110 0
-111 716 0
112 -745 -109 0
-112 745 0
-112 109 0
113 -12 -746 0
-113 12 0
-113 746 0
114 -113 -727 0
-114 113 0
-114 727 0
115 -747 -112 0
-115 747 0
-115 112 0
116 -38 -748 0
-116 38 0
-116 748 0
117 -116 -39 0
-117 116 0
-117 39 0
118 -749 -115 0
-118 749 0
-118 115 0
119 -38 -722 0
-119 38 0
-119 722 0
120 -119 -735 0
-120 119 0
-120 735 0
121 -750 -118 0
-121 750 0
-121 118 0
122 -40 -705 0
-122 40 0
-122 705 0
123 -122 -35 0
-123 122 0
-123 35 0
124 -751 -121 0
-124 751 0
-124 121 0
125 -28 -752 0
-125 28 0
-125 752 0
126 -125 -34 0
-126 125 0
-126 34 0
127 -753 -124 0
-127 753 0
-127 124 0
128 -754 -19 0
-128 754 0
-128 19 0
129 -128 -716 0
-129 128 0
-129 716 0
130 -755 -127 0
-130 755 0
-130 127 0
131 -756 -757 0
-131 756 0
-131 757 0
132 -131 -735 0
-132 131 0
-132 735 0
133 -758 -130 0
-133 758 0
-133 130 0
134 -42 -726 0
-134 42 0
-134 726 0
135 -134 -33 0
-135 134 0
-135 33 0
136 -759 -133 0
-136 759 0
-136 133 0
137 -737 -11 0
-137 737 0
-137 11 0
138 -137 -43 0
-138 137 0
-138 43 0
139 -760 -136 0
-139 760 0
-139 136 0
140 -708 -729 0
-140 708 0
-140 729 0
141 -140 -761 0
-141 140 0
-141 761 0
142 -762 -139 0
-142 762 0
-142 139 0
143 -30 -720 0
-143 30 0
-143 720 0
144 -143 -14 0
-144 143 0
-144 14 0
145 -763 -142 0
-145 763 0
-145 142 0
146 -11 -3 0
-146 11 0
-146 3 0
147 -146 -764 0
-147 146 0
-147 764 0
148 -765 -145 0
-148 765 0
-148 145 0
149 -45 -756 0
-149 45 0
-149 756 0
150 -149 -44 0
-150 149 0
-150 44 0
151 -766 -148 0
-151 766 0
-151 148 0
152 -767 -17 0
-152 767 0
-152 17 0
153 -152 -33 0
-153 152 0
-153 33 0
154 -768 -151 0
-154 768 0
-154 151 0
155 -39 -3 0
-155 39 0
-155 3 0
156 -155 -18 0
-156 155 0
-156 18 0
157 -769 -154 0
-157 769 0
-157 154 0
158 -26 -722 0
-158 26 0
-158 722 0
159 -158 -711 0
-159 158 0
-159 711 0
160 -770 -157 0
-160 770 0
-160 157 0
161 -771 -26 0
-161 771 0
-161 26 0
162 -161 -17 0
-162 161 0
-162 17 0
163 -772 -160 0
-163 772 0
-163 160 0
164 -17 -708 0
-164 17 0
-164 708 0
165 -164 -33 0
-165 164 0
-165 33 0
166 -773 -163 0
-166 773 0
-166 163 0
167 -774 -764 0
-167 774 0
-167 764 0
168 -167 -711 0
-168 167 0
-168 711 0
169 -775 -166 0
-169 775 0
-169 166 0
170 -7 -4 0
-170 7 0
-170 4 0
171 -170 -47 0
-171 170 0
-171 47 0
172 -776 -169 0
-172 776 0
-172 169 0
173 -13 -718 0
-173 13 0
-173 718 0
174 -173 -27 0
-174 173 0
-174 27 0
175 -777 -172 0
-175 777 0
-175 172 0
176 -59 -29 0
-176 59 0
-176 29 0
177 -778 -175 0
-177 778 0
-177 175 0
178 -34 -3 0
-178 34 0
-178 3 0
179 -178 -761 0
-179 178 0
-179 761 0
180 -779 -177 0
-180 779 0
-180 177 0
181 -780 -757 0
-181 780 0
-181 757 0
182 -181 -714 0
-182 181 0
-182 714 0
183 -781 -180 0
-183 781 0
-183 180 0
184 -36 -26 0
-184 36 0
-184 26 0
185 -184 -33 0
-185 184 0
-185 33 0
186 -782 -183 0
-186 782 0
-186 183 0
187 -741 -746 0
-187 741 0
-187 746 0
188 -187 -714 0
-188 187 0
-188 714 0
189 -783 -186 0
-189 783 0
-189 186 0
190 -49 -784 0
-190 49 0
-190 784 0
191 -190 -716 0
-191 190 0
-191 716 0
192 -785 -189 0
-192 785 0
-192 189 0
193 -757 -705 0
-193 757 0
-193 705 0
194 -193 -44 0
-194 193 0
-194 44 0
195 -786 -192 0
-195 786 0
-195 192 0
196 -720 -3 0
-196 720 0
-196 3 0
197 -196 -787 0
-197 196 0
-197 787 0
198 -788 -195 0
-198 788 0
-198 195 0
199 -49 -731 0
-199 49 0
-199 731 0
200 -199 -718 0
-200 199 0
-200 718 0
201 -789 -198 0
-201 789 0
-201 198 0
202 -30 -764 0
-202 30 0
-202 764 0
203 -202 -48 0
-203 202 0
-203 48 0
204 -790 -201 0
-204 790 0
-204 201 0
205 -42 -32 0
-205 42 0
-205 32 0
206 -205 -791 0
-206 205 0
-206 791 0
207 -792 -204 0
-207 792 0
-207 204 0
208 -34 -7 0
-208 34 0
-208 7 0
209 -208 -6 0
-209 208 0
-209 6 0
210 -793 -207 0
-210 793 0
-210 207 0
211 -756 -794 0
-211 756 0
-211 794 0
212 -211 -34 0
-212 211 0
-212 34 0
213 -795 -210 0
-213 795 0
-213 210 0
214 -22 -3 0
-214 22 0
-214 3 0
215 -214 -33 0
-215 214 0
-215 33 0
216 -796 -213 0
-216 796 0
-216 213 0
217 -50 -1 0
-217 50 0
-217 1 0
218 -217 -797 0
-218 217 0
-218 797 0
219 -798 -216 0
-219 798 0
-219 216 0
220 -49 -4 0
-220 49 0
-220 4 0
221 -220 -799 0
-221 220 0
-221 799 0
222 -800 -219 0
-222 800 0
-222 219 0
223 -43 -771 0
-223 43 0
-223 771 0
224 -223 -16 0
-224 223 0
-224 16 0
225 -801 -222 0
-225 801 0
-225 222 0
226 -50 -15 0
-226 50 0
-226 15 0
227 -226 -23 0
-227 226 0
-227 23 0
228 -802 -225 0
-228 802 0
-228 225 0
229 -803 -7 0
-229 803 0
-229 7 0
230 -229 -794 0
-230 229 0
-230 794 0
231 -804 -228 0
-231 804 0
-231 228 0
232 -805 -10 0
-232 805 0
-232 10 0
233 -232 -698 0
-233 232 0
-233 698 0
234 -806 -231 0
-234 806 0
-234 231 0
235 -771 -757 0
-235 771 0
-235 757 0
236 -235 -784 0
-236 235 0
-236 784 0
237 -807 -234 0
-237 807 0
-237 234 0
238 -40 -729 0
-238 40 0
-238 729 0
239 -238 -754 0
-239 238 0
-239 754 0
240 -808 -237 0
-240 808 0
-240 237 0
241 -799 -4 0
-241 799 0
-241 4 0
242 -241 -18 0
-242 241 0
-242 18 0
243 -809 -240 0
-243 809 0
-243 240 0
244 -805 -726 0
-244 805 0
-244 726 0
245 -244 -703 0
-245 244 0
-245 703 0
246 -810 -243 0
-246 810 0
-246 243 0
247 -39 -811 0
-247 39 0
-247 811 0
248 -247 -42 0
-248 247 0
-248 42 0
249 -812 -246 0
-249 812 0
-249 246 0
250 -729 -8 0
-250 729 0
-250 8 0
251 -250 -39 0
-251 250 0
-251 39 0
252 -813 -249 0
-252 813 0
-252 249 0
253 -38 -752 0
-253 38 0
-253 752 0
254 -253 -45 0
-254 253 0
-254 45 0
255 -814 -252 0
-255 814 0
-255 252 0
256 -771 -710 0
-256 771 0
-256 710 0
257 -256 -784 0
-257 256 0
-257 784 0
258 -815 -255 0
-258 815 0
-258 255 0
259 -38 -13 0
-259 38 0
-259 13 0
260 -259 -742 0
-260 259 0
-260 742 0
261 -816 -258 0
-261 816 0
-261 258 0
262 -731 -723 0
-262 731 0
-262 723 0
263 -262 -784 0
-263 262 0
-263 784 0
264 -817 -261 0
-264 817 0
-264 261 0
265 -50 -722 0
-265 50 0
-265 722 0
266 -265 -35 0
-266 265 0
-266 35 0
267 -818 -264 0
-267 818 0
-267 264 0
268 -735 -25 0
-268 735 0
-268 25 0
269 -268 -739 0
-269 268 0
-269 739 0
270 -819 -267 0
-270 819 0
-270 267 0
271 -5 -3 0
-271 5 0
-271 3 0
272 -271 -47 0
-272 271 0
-272 47 0
273 -820 -270 0
-273 820 0
-273 270 0
274 -41 -39 0
-274 41 0
-274 39 0
275 -274 -34 0
-275 274 0
-275 34 0
276 -821 -273 0
-276 821 0
-276 273 0
277 -822 -8 0
-277 822 0
-277 8 0
278 -277 -22 0
-278 277 0
-278 22 0
279 -823 -276 0
-279 823 0
-279 276 0
280 -40 -726 0
-280 40 0
-280 726 0
281 -280 -699 0
-281 280 0
-281 699 0
282 -824 -279 0
-282 824 0
-282 279 0
283 -26 -4 0
-283 26 0
-283 4 0
284 -283 -18 0
-284 283 0
-284 18 0
285 -825 -282 0
-285 825 0
-285 282 0
286 -794 -757 0
-286 794 0
-286 757 0
287 -286 -735 0
-287 286 0
-287 735 0
288 -826 -285 0
-288 826 0
-288 285 0
289 -40 -700 0
-289 40 0
-289 700 0
290 -289 -44 0
-290 289 0
-290 44 0
291 -827 -288 0
-291 827 0
-291 288 0
292 -803 -41 0
-292 803 0
-292 41 0
293 -292 -757 0
-293 292 0
-293 757 0
294 -828 -291 0
-294 828 0
-294 291 0
295 -805 -38 0
-295 805 0
-295 38 0
296 -295 -727 0
-296 295 0
-296 727 0
297 -829 -294 0
-297 829 0
-297 294 0
298 -803 -699 0
-298 803 0
-298 699 0
299 -298 -774 0
-299 298 0
-299 774 0
300 -830 -297 0
-300 830 0
-300 297 0
301 -748 -731 0
-301 748 0
-301 731 0
302 -301 -724 0
-302 301 0
-302 724 0
303 -831 -300 0
-303 831 0
-303 300 0
304 -705 -5 0
-304 705 0
-304 5 0
305 -304 -39 0
-305 304 0
-305 39 0
306 -832 -303 0
-306 832 0
-306 303 0
307 -731 -757 0
-307 731 0
-307 757 0
308 -307 -24 0
-308 307 0
-308 24 0
309 -833 -306 0
-309 833 0
-309 306 0
310 -710 -698 0
-310 710 0
-310 698 0
311 -310 -45 0
-311 310 0
-311 45 0
312 -834 -309 0
-312 834 0
-312 309 0
313 -19 -797 0
-313 19 0
-313 797 0
314 -313 -780 0
-314 313 0
-314 780 0
315 -835 -312 0
-315 835 0
-315 312 0
316 -36 -3 0
-316 36 0
-316 3 0
317 -316 -38 0
-317 316 0
-317 38 0
318 -836 -315 0
-318 836 0
-318 315 0
319 -19 -699 0
-319 19 0
-319 699 0
320 -319 -700 0
-320 319 0
-320 700 0
321 -837 -318 0
-321 837 0
-321 318 0
322 -720 -15 0
-322 720 0
-322 15 0
323 -322 -703 0
-323 322 0
-323 703 0
324 -838 -321 0
-324 838 0
-324 321 0
325 -12 -738 0
-325 12 0
-325 738 0
326 -325 -33 0
-326 325 0
-326 33 0
327 -839 -324 0
-327 839 0
-327 324 0
328 -50 -718 0
-328 50 0
-328 718 0
329 -328 -6 0
-329 328 0
-329 6 0
330 -840 -327 0
-330 840 0
-330 327 0
331 -754 -731 0
-331 754 0
-331 731 0
332 -331 -38 0
-332 331 0
-332 38 0
333 -841 -330 0
-333 841 0
-333 330 0
334 -803 -9 0
-334 803 0
-334 9 0
335 -334 -716 0
-335 334 0
-335 716 0
336 -842 -333 0
-336 842 0
-336 333 0
337 -28 -13 0
-337 28 0
-337 13 0
338 -337 -6 0
-338 337 0
-338 6 0
339 -843 -336 0
-339 843 0
-339 336 0
340 -14 -11 0
-340 14 0
-340 11 0
341 -340 -714 0
-341 340 0
-341 714 0
342 -844 -339 0
-342 844 0
-342 339 0
343 -754 -2 0
-343 754 0
-343 2 0
344 -343 -33 0
-344 343 0
-344 33 0
345 -845 -342 0
-345 845 0
-345 342 0
346 -805 -705 0
-346 805 0
-346 705 0
347 -346 -731 0
-347 346 0
-347 731 0
348 -846 -345 0
-348 846 0
-348 345 0
349 -726 -698 0
-349 726 0
-349 698 0
350 -349 -797 0
-350 349 0
-350 797 0
351 -847 -348 0
-351 847 0
-351 348 0
352 -742 -733 0
-352 742 0
-352 733 0
353 -352 -48 0
-353 352 0
-353 48 0
354 -848 -351 0
-354 848 0
-354 351 0
355 -741 -4 0
-355 741 0
-355 4 0
356 -355 -22 0
-356 355 0
-356 22 0
357 -849 -354 0
-357 849 0
-357 354 0
358 -47 -33 0
-358 47 0
-358 33 0
359 -358 -727 0
-359 358 0
-359 727 0
360 -850 -357 0
-360 850 0
-360 357 0
361 -774 -3 0
-361 774 0
-361 3 0
362 -361 -711 0
-362 361 0
-362 711 0
363 -851 -360 0
-363 851 0
-363 360 0
364 -46 -2 0
-364 46 0
-364 2 0
365 -364 -12 0
-365 364 0
-365 12 0
366 -852 -363 0
-366 852 0
-366 363 0
367 -50 -8 0
-367 50 0
-367 8 0
368 -367 -38 0
-368 367 0
-368 38 0
369 -853 -366 0
-369 853 0
-369 366 0
370 -27 -25 0
-370 27 0
-370 25 0
371 -370 -739 0
-371 370 0
-371 739 0
372 -854 -369 0
-372 854 0
-372 369 0
373 -729 -718 0
-373 729 0
-373 718 0
374 -373 -733 0
-374 373 0
-374 733 0
375 -855 -372 0
-375 855 0
-375 372 0
376 -754 -752 0
-376 754 0
-376 752 0
377 -376 -35 0
-377 376 0
-377 35 0
378 -856 -375 0
-378 856 0
-378 375 0
379 -42 -723 0
-379 42 0
-379 723 0
380 -379 -31 0
-380 379 0
-380 31 0
381 -857 -378 0
-381 857 0
-381 378 0
382 -37 -26 0
-382 37 0
-382 26 0
383 -382 -27 0
-383 382 0
-383 27 0
384 -858 -381 0
-384 858 0
-384 381 0
385 -724 -703 0
-385 724 0
-385 703 0
386 -385 -735 0
-386 385 0
-386 735 0
387 -859 -384 0
-387 859 0
-387 384 0
388 -799 -17 0
-388 799 0
-388 17 0
389 -388 -737 0
-389 388 0
-389 737 0
390 -860 -387 0
-390 860 0
-390 387 0
391 -21 -757 0
-391 21 0
-391 757 0
392 -391 -27 0
-392 391 0
-392 27 0
393 -861 -390 0
-393 861 0
-393 390 0
394 -799 -703 0
-394 799 0
-394 703 0
395 -394 -20 0
-395 394 0
-395 20 0
396 -862 -393 0
-396 862 0
-396 393 0
397 -811 -7 0
-397 811 0
-397 7 0
398 -397 -733 0
-398 397 0
-398 733 0
399 -863 -396 0
-399 863 0
-399 396 0
400 -756 -710 0
-400 756 0
-400 710 0
401 -400 -20 0
-401 400 0
-401 20 0
402 -864 -399 0
-402 864 0
-402 399 0
403 -38 -729 0
-403 38 0
-403 729 0
404 -403 -43 0
-404 403 0
-404 43 0
405 -865 -402 0
-405 865 0
-405 402 0
406 -722 -13 0
-406 722 0
-406 13 0
407 -406 -716 0
-407 406 0
-407 716 0
408 -866 -405 0
-408 866 0
-408 405 0
409 -794 -4 0
-409 794 0
-409 4 0
410 -409 -716 0
-410 409 0
-410 716 0
411 -867 -408 0
-411 867 0
-411 408 0
412 -784 -12 0
-412 784 0
-412 12 0
413 -412 -727 0
-413 412 0
-413 727 0
414 -868 -411 0
-414 868 0
-414 411 0
415 -731 -822 0
-415 731 0
-415 822 0
416 -415 -22 0
-416 415 0
-416 22 0
417 -869 -414 0
-417 869 0
-417 414 0
418 -48 -742 0
-418 48 0
-418 742 0
419 -418 -791 0
-419 418 0
-419 791 0
420 -870 -417 0
-420 870 0
-420 417 0
421 -50 -13 0
-421 50 0
-421 13 0
422 -421 -699 0
-422 421 0
-422 699 0
423 -871 -420 0
-423 871 0
-423 420 0
424 -37 -12 0
-424 37 0
-424 12 0
425 -424 -737 0
-425 424 0
-425 737 0
426 -872 -423 0
-426 872 0
-426 423 0
427 -805 -714 0
-427 805 0
-427 714 0
428 -427 -716 0
-428 427 0
-428 716 0
429 -873 -426 0
-429 873 0
-429 426 0
430 -50 -724 0
-430 50 0
-430 724 0
431 -430 -39 0
-431 430 0
-431 39 0
432 -874 -429 0
-432 874 0
-432 429 0
433 -32 -11 0
-433 32 0
-433 11 0
434 -433 -48 0
-434 433 0
-434 48 0
435 -875 -432 0
-435 875 0
-435 432 0
436 -767 -35 0
-436 767 0
-436 35 0
437 -436 -6 0
-437 436 0
-437 6 0
438 -876 -435 0
-438 876 0
-438 435 0
439 -37 -36 0
-439 37 0
-439 36 0
440 -439 -27 0
-440 439 0
-440 27 0
441 -877 -438 0
-441 877 0
-441 438 0
442 -43 -5 0
-442 43 0
-442 5 0
443 -442 -700 0
-443 442 0
-443 700 0
444 -878 -441 0
-444 878 0
-444 441 0
445 -49 -794 0
-445 49 0
-445 794 0
446 -445 -6 0
-446 445 0
-446 6 0
447 -879 -444 0
-447 879 0
-447 444 0
448 -30 -25 0
-448 30 0
-448 25 0
449 -448 -733 0
-449 448 0
-449 733 0
450 -880 -447 0
-450 880 0
-450 447 0
451 -799 -748 0
-451 799 0
-451 748 0
452 -451 -700 0
-452 451 0
-452 700 0
453 -881 -450 0
-453 881 0
-453 450 0
454 -8 -4 0
-454 8 0
-454 4 0
455 -454 -20 0
-455 454 0
-455 20 0
456 -882 -453 0
-456 882 0
-456 453 0
457 -767 -699 0
-457 767 0
-457 699 0
458 -457 -31 0
-458 457 0
-458 31 0
459 -883 -456 0
-459 883 0
-459 456 0
460 -757 -7 0
-460 757 0
-460 7 0
461 -460 -742 0
-461 460 0
-461 742 0
462 -884 -459 0
-462 884 0
-462 459 0
463 -767 -27 0
-463 767 0
-463 27 0
464 -463 -18 0
-464 463 0
-464 18 0
465 -885 -462 0
-465 885 0
-465 462 0
466 -36 -703 0
-466 36 0
-466 703 0
467 -466 -735 0
-467 466 0
-467 735 0
468 -886 -465 0
-468 886 0
-468 465 0
469 -41 -25 0
-469 41 0
-469 25 0
470 -469 -33 0
-470 469 0
-470 33 0
471 -887 -468 0
-471 887 0
-471 468 0
472 -27 -738 0
-472 27 0
-472 738 0
473 -472 -32 0
-473 472 0
-473 32 0
474 -888 -471 0
-474 888 0
-474 471 0
475 -158 -34 0
-475 158 0
-475 34 0
476 -889 -474 0
-476 889 0
-476 474 0
477 -25 -699 0
-477 25 0
-477 699 0
478 -477 -711 0
-478 477 0
-478 711 0
479 -890 -476 0
-479 890 0
-479 476 0
480 -726 -729 0
-480 726 0
-480 729 0
481 -480 -18 0
-481 480 0
-481 18 0
482 -891 -479 0
-482 891 0
-482 479 0
483 -733 -794 0
-483 733 0
-483 794 0
484 -483 -787 0
-484 483 0
-484 787 0
485 -892 -482 0
-485 892 0
-485 482 0
486 -726 -13 0
-486 726 0
-486 13 0
487 -486 -18 0
-487 486 0
-487 18 0
488 -893 -485 0
-488 893 0
-488 485 0
489 -28 -10 0
-489 28 0
-489 10 0
490 -489 -35 0
-490 489 0
-490 35 0
491 -894 -488 0
-491 894 0
-491 488 0
492 -764 -8 0
-492 764 0
-492 8 0
493 -492 -787 0
-493 492 0
-493 787 0
494 -895 -491 0
-494 895 0
-494 491 0
495 -45 -34 0
-495 45 0
-495 34 0
496 -495 -774 0
-496 495 0
-496 774 0
497 -896 -494 0
-497 896 0
-497 494 0
498 -46 -757 0
-498 46 0
-498 757 0
499 -498 -787 0
-499 498 0
-499 787 0
500 -897 -497 0
-500 897 0
-500 497 0
501 -771 -4 0
-501 771 0
-501 4 0
502 -501 -50 0
-502 501 0
-502 50 0
503 -898 -500 0
-503 898 0
-503 500 0
504 -49 -764 0
-504 49 0
-504 764 0
505 -504 -42 0
-505 504 0
-505 42 0
506 -899 -503 0
-506 899 0
-506 503 0
507 -11 -752 0
-507 11 0
-507 752 0
508 -507 -791 0
-508 507 0
-508 791 0
509 -900 -506 0
-509 900 0
-509 506 0
510 -33 -722 0
-510 33 0
-510 722 0
511 -510 -23 0
-511 510 0
-511 23 0
512 -901 -509 0
-512 901 0
-512 509 0
513 -40 -737 0
-513 40 0
-513 737 0
514 -513 -6 0
-514 513 0
-514 6 0
515 -902 -512 0
-515 902 0
-515 512 0
516 -754 -774 0
-516 754 0
-516 774 0
517 -516 -761 0
-517 516 0
-517 761 0
518 -903 -515 0
-518 903 0
-518 515 0
519 -748 -737 0
-519 748 0
-519 737 0
520 -519 -6 0
-520 519 0
-520 6 0
521 -904 -518 0
-521 904 0
-521 518 0
522 -24 -710 0
-522 24 0
-522 710 0
523 -522 -737 0
-523 522 0
-523 737 0
524 -905 -521 0
-524 905 0
-524 521 0
525 -7 -1 0
-525 7 0
-525 1 0
526 -525 -47 0
-526 525 0
-526 47 0
527 -906 -524 0
-527 906 0
-527 524 0
528 -45 -37 0
-528 45 0
-528 37 0
529 -528 -42 0
-529 528 0
-529 42 0
530 -907 -527 0
-530 907 0
-530 527 0
531 -22 -11 0
-531 22 0
-531 11 0
532 -531 -761 0
-532 531 0
-532 761 0
533 -908 -530 0
-533 908 0
-533 530 0
534 -754 -12 0
-534 754 0
-534 12 0
535 -534 -724 0
-535 534 0
-535 724 0
536 -909 -533 0
-536 909 0
-536 533 0
537 -822 -757 0
-537 822 0
-537 757 0
538 -537 -16 0
-538 537 0
-538 16 0
539 -910 -536 0
-539 910 0
-539 536 0
540 -811 -706 0
-540 811 0
-540 706 0
541 -540 -761 0
-541 540 0
-541 761 0
542 -911 -539 0
-542 911 0
-542 539 0
543 -49 -40 0
-543 49 0
-543 40 0
544 -543 -714 0
-544 543 0
-544 714 0
545 -912 -542 0
-545 912 0
-545 542 0
546 -784 -46 0
-546 784 0
-546 46 0
547 -546 -35 0
-547 546 0
-547 35 0
548 -913 -545 0
-548 913 0
-548 545 0
549 -805 -41 0
-549 805 0
-549 41 0
550 -549 -714 0
-550 549 0
-550 714 0
551 -914 -548 0
-551 914 0
-551 548 0
552 -21 -797 0
-552 21 0
-552 797 0
553 -552 -784 0
-553 552 0
-553 784 0
554 -915 -551 0
-554 915 0
-554 551 0
555 -48 -739 0
-555 48 0
-555 739 0
556 -555 -700 0
-556 555 0
-556 700 0
557 -916 -554 0
-557 916 0
-557 554 0
558 -13 -700 0
-558 13 0
-558 700 0
559 -558 -16 0
-559 558 0
-559 16 0
560 -917 -557 0
-560 917 0
-560 557 0
561 -710 -738 0
-561 710 0
-561 738 0
562 -561 -9 0
-562 561 0
-562 9 0
563 -918 -560 0
-563 918 0
-563 560 0
564 -780 -26 0
-564 780 0
-564 26 0
565 -564 -791 0
-565 564 0
-565 791 0
566 -919 -563 0
-566 919 0
-566 563 0
567 -811 -11 0
-567 811 0
-567 11 0
568 -567 -799 0
-568 567 0
-568 799 0
569 -920 -566 0
-569 920 0
-569 566 0
570 -286 -27 0
-570 286 0
-570 27 0
571 -921 -569 0
-571 921 0
-571 569 0
572 -733 -710 0
-572 733 0
-572 710 0
573 -572 -797 0
-573 572 0
-573 797 0
574 -922 -571 0
-574 922 0
-574 571 0
575 -47 -787 0
-575 47 0
-575 787 0
576 -575 -48 0
-576 575 0
-576 48 0
577 -923 -574 0
-577 923 0
-577 574 0
578 -720 -729 0
-578 720 0
-578 729 0
579 -578 -47 0
-579 578 0
-579 47 0
580 -924 -577 0
-580 924 0
-580 577 0
581 -742 -8 0
-581 742 0
-581 8 0
582 -581 -716 0
-582 581 0
-582 716 0
583 -925 -580 0
-583 925 0
-583 580 0
584 -30 -738 0
-584 30 0
-584 738 0
585 -584 -8 0
-585 584 0
-585 8 0
586 -926 -583 0
-586 926 0
-586 583 0
587 -46 -11 0
-587 46 0
-587 11 0
588 -587 -780 0
-588 587 0
-588 780 0
589 -927 -586 0
-589 927 0
-589 586 0
590 -41 -799 0
-590 41 0
-590 799 0
591 -590 -18 0
-591 590 0
-591 18 0
592 -928 -589 0
-592 928 0
-592 589 0
593 -726 -794 0
-593 726 0
-593 794 0
594 -593 -9 0
-594 593 0
-594 9 0
595 -929 -592 0
-595 929 0
-595 592 0
596 -742 -723 0
-596 742 0
-596 723 0
597 -596 -774 0
-597 596 0
-597 774 0
598 -930 -595 0
-598 930 0
-598 595 0
599 -36 -10 0
-599 36 0
-599 10 0
600 -599 -733 0
-600 599 0
-600 733 0
601 -931 -598 0
-601 931 0
-601 598 0
602 -12 -5 0
-602 12 0
-602 5 0
603 -602 -18 0
-603 602 0
-603 18 0
604 -932 -601 0
-604 932 0
-604 601 0
605 -26 -764 0
-605 26 0
-605 764 0
606 -605 -20 0
-606 605 0
-606 20 0
607 -933 -604 0
-607 933 0
-607 604 0
608 -805 -803 0
-608 805 0
-608 803 0
609 -608 -761 0
-609 608 0
-609 761 0
610 -934 -607 0
-610 934 0
-610 607 0
611 -24 -738 0
-611 24 0
-611 738 0
612 -611 -787 0
-612 611 0
-612 787 0
613 -935 -610 0
-613 935 0
-613 610 0
614 -764 -706 0
-614 764 0
-614 706 0
615 -614 -936 0
-615 614 0
-615 936 0
616 -937 -613 0
-616 937 0
-616 613 0
617 -733 -764 0
-617 733 0
-617 764 0
618 -617 -714 0
-618 617 0
-618 714 0
619 -938 -616 0
-619 938 0
-619 616 0
620 -26 -757 0
-620 26 0
-620 757 0
621 -620 -735 0
-621 620 0
-621 735 0
622 -939 -619 0
-622 939 0
-622 619 0
623 -748 -724 0
-623 748 0
-623 724 0
624 -623 -14 0
-624 623 0
-624 14 0
625 -940 -622 0
-625 940 0
-625 622 0
626 -803 -784 0
-626 803 0
-626 784 0
627 -626 -791 0
-627 626 0
-627 791 0
628 -941 -625 0
-628 941 0
-628 625 0
629 -46 -752 0
-629 46 0
-629 752 0
630 -629 -739 0
-630 629 0
-630 739 0
631 -942 -628 0
-631 942 0
-631 628 0
632 -805 -40 0
-632 805 0
-632 40 0
633 -632 -18 0
-633 632 0
-633 18 0
634 -943 -631 0
-634 943 0
-634 631 0
635 -784 -24 0
-635 784 0
-635 24 0
636 -635 -43 0
-636 635 0
-636 43 0
637 -944 -634 0
-637 944 0
-637 634 0
638 -716 -699 0
-638 716 0
-638 699 0
639 -638 -727 0
-639 638 0
-639 727 0
640 -945 -637 0
-640 945 0
-640 637 0
641 -41 -21 0
-641 41 0
-641 21 0
642 -641 -714 0
-642 641 0
-642 714 0
643 -946 -640 0
-643 946 0
-643 640 0
644 -21 -19 0
-644 21 0
-644 19 0
645 -644 -700 0
-645 644 0
-645 700 0
646 -947 -643 0
-646 947 0
-646 643 0
647 -45 -771 0
-647 45 0
-647 771 0
648 -647 -23 0
-648 647 0
-648 23 0
649 -948 -646 0
-649 948 0
-649 646 0
650 -718 -1 0
-650 718 0
-650 1 0
651 -650 -32 0
-651 650 0
-651 32 0
652 -949 -649 0
-652 949 0
-652 649 0
653 -39 -27 0
-653 39 0
-653 27 0
654 -653 -791 0
-654 653 0
-654 791 0
655 -950 -652 0
-655 950 0
-655 652 0
656 -38 -742 0
-656 38 0
-656 742 0
657 -656 -20 0
-657 656 0
-657 20 0
658 -951 -655 0
-658 951 0
-658 655 0
659 -40 -26 0
-659 40 0
-659 26 0
660 -659 -718 0
-660 659 0
-660 718 0
661 -952 -658 0
-661 952 0
-661 658 0
662 -26 -738 0
-662 26 0
-662 738 0
663 -662 -699 0
-663 662 0
-663 699 0
664 -953 -661 0
-664 953 0
-664 661 0
665 -23 -17 0
-665 23 0
-665 17 0
666 -665 -727 0
-666 665 0
-666 727 0
667 -954 -664 0
-667 954 0
-667 664 0
668 -367 -16 0
-668 367 0
-668 16 0
669 -955 -667 0
-669 955 0
-669 667 0
670 -754 -30 0
-670 754 0
-670 30 0
671 -670 -42 0
-671 670 0
-671 42 0
672 -956 -669 0
-672 956 0
-672 669 0
673 -722 -1 0
-673 722 0
-673 1 0
674 -673 -936 0
-674 673 0
-674 936 0
675 -957 -672 0
-675 957 0
-675 672 0
676 -38 -754 0
-676 38 0
-676 754 0
677 -676 -739 0
-677 676 0
-677 739 0
678 -958 -675 0
-678 958 0
-678 675 0
679 -17 -1 0
-679 17 0
-679 1 0
680 -679 -742 0
-680 679 0
-680 742 0
681 -959 -678 0
-681 959 0
-681 678 0
682 -30 -718 0
-682 30 0
-682 718 0
683 -682 -724 0
-683 682 0
-683 724 0
684 -960 -681 0
-684 960 0
-684 681 0
685 -107 -703 0
-685 107 0
-685 703 0
686 -961 -684 0
-686 961 0
-686 684 0
687 -811 -19 0
-687 811 0
-687 19 0
688 -687 -29 0
-688 687 0
-688 29 0
689 -962 -686 0
-689 962 0
-689 686 0
690 -37 -706 0
-690 37 0
-690 706 0
691 -690 -27 0
-691 690 0
-691 27 0
692 -963 -689 0
-692 963 0
-692 689 0
693 -41 -36 0
-693 41 0
-693 36 0
694 -693 -1 0
-694 693 0
-694 1 0
695 -964 -692 0
-695 964 0
-695 692 0
696 -659 -38 0
-696 659 0
-696 38 0
697 -965 -695 0
-697 965 0
-697 695 0
-698 -1 0
698 1 0
-699 -3 0
699 3 0
-700 -6 0
700 6 0
-701 -54 0
701 54 0
-702 -52 0
702 52 0
-703 -8 0
703 8 0
-704 -57 0
704 57 0
-705 -10 0
705 10 0
-706 -12 0
706 12 0
-707 -60 0
707 60 0
-708 -14 0
708 14 0
-709 -63 0
709 63 0
-710 -15 0
710 15 0
-711 -16 0
711 16 0
-712 -66 0
712 66 0
-713 -69 0
713 69 0
-714 -20 0
714 20 0
-715 -72 0
715 72 0
-716 -23 0
716 23 0
-717 -75 0
717 75 0
-718 -2 0
718 2 0
-719 -78 0
719 78 0
-720 -25 0
720 25 0
-721 -81 0
721 81 0
-722 -22 0
722 22 0
-723 -5 0
723 5 0
-724 -27 0
724 27 0
-725 -84 0
725 84 0
-726 -28 0
726 28 0
-727 -29 0
727 29 0
-728 -87 0
728 87 0
-729 -13 0
729 13 0
-730 -90 0
730 90 0
-731 -30 0
731 30 0
-732 -93 0
732 93 0
-733 -24 0
733 24 0
-734 -96 0
734 96 0
-735 -31 0
735 31 0
-736 -99 0
736 99 0
-737 -32 0
737 32 0
-738 -7 0
738 7 0
-739 -33 0
739 33 0
-740 -102 0
740 102 0
-741 -19 0
741 19 0
-742 -34 0
742 34 0
-743 -105 0
743 105 0
-744 -108 0
744 108 0
-745 -111 0
745 111 0
-746 -11 0
746 11 0
-747 -114 0
747 114 0
-748 -37 0
748 37 0
-749 -117 0
749 117 0
-750 -120 0
750 120 0
-751 -123 0
751 123 0
-752 -4 0
752 4 0
-753 -126 0
753 126 0
-754 -36 0
754 36 0
-755 -129 0
755 129 0
-756 -41 0
756 41 0
-757 -17 0
757 17 0
-758 -132 0
758 132 0
-759 -135 0
759 135 0
-760 -138 0
760 138 0
-761 -44 0
761 44 0
-762 -141 0
762 141 0
-763 -144 0
763 144 0
-764 -18 0
764 18 0
-765 -147 0
765 147 0
-766 -150 0
766 150 0
-767 -46 0
767 46 0
-768 -153 0
768 153 0
-769 -156 0
769 156 0
-770 -159 0
770 159 0
-771 -40 0
771 40 0
-772 -162 0
772 162 0
-773 -165 0
773 165 0
-774 -35 0
774 35 0
-775 -168 0
775 168 0
-776 -171 0
776 171 0
-777 -174 0
777 174 0
-778 -176 0
778 176 0
-779 -179 0
779 179 0
-780 -48 0
780 48 0
-781 -182 0
781 182 0
-782 -185 0
782 185 0
-783 -188 0
783 188 0
-784 -47 0
784 47 0
-785 -191 0
785 191 0
-786 -194 0
786 194 0
-787 -45 0
787 45 0
-788 -197 0
788 197 0
-789 -200 0
789 200 0
-790 -203 0
790 203 0
-791 -43 0
791 43 0
-792 -206 0
792 206 0
-793 -209 0
793 209 0
-794 -21 0
794 21 0
-795 -212 0
795 212 0
-796 -215 0
796 215 0
-797 -9 0
797 9 0
-798 -218 0
798 218 0
-799 -39 0
799 39 0
-800 -221 0
800 221 0
-801 -224 0
801 224 0
-802 -227 0
802 227 0
-803 -49 0
803 49 0
-804 -230 0
804 230 0
-805 -50 0
805 50 0
-806 -233 0
806 233 0
-807 -236 0
807 236 0
-808 -239 0
808 239 0
-809 -242 0
809 242 0
-810 -245 0
810 245 0
-811 -38 0
811 38 0
-812 -248 0
812 248 0
-813 -251 0
813 251 0
-814 -254 0
814 254 0
-815 -257 0
815 257 0
-816 -260 0
816 260 0
-817 -263 0
817 263 0
-818 -266 0
818 266 0
-819 -269 0
819 269 0
-820 -272 0
820 272 0
-821 -275 0
821 275 0
-822 -26 0
822 26 0
-823 -278 0
823 278 0
-824 -281 0
824 281 0
-825 -284 0
825 284 0
-826 -287 0
826 287 0
-827 -290 0
827 290 0
-828 -293 0
828 293 0
-829 -296 0
829 296 0
-830 -299 0
830 299 0
-831 -302 0
831 302 0
-832 -305 0
832 305 0
-833 -308 0
833 308 0
-834 -311 0
834 311 0
-835 -314 0
835 314 0
-836 -317 0
836 317 0
-837 -320 0
837 320 0
-838 -323 0
838 323 0
-839 -326 0
839 326 0
-840 -329 0
840 329 0
-841 -332 0
841 332 0
-842 -335 0
842 335 0
-843 -338 0
843 338 0
-844 -341 0
844 341 0
-845 -344 0
845 344 0
-846 -347 0
846 347 0
-847 -350 0
847 350 0
-848 -353 0
848 353 0
-849 -356 0
849 356 0
-850 -359 0
850 359 0
-851 -362 0
851 362 0
-852 -365 0
852 365 0
-853 -368 0
853 368 0
-854 -371 0
854 371 0
-855 -374 0
855 374 0
-856 -377 0
856 377 0
-857 -380 0
857 380 0
-858 -383 0
858 383 0
-859 -386 0
859 386 0
-860 -389 0
860 389 0
-861 -392 0
861 392 0
-862 -395 0
862 395 0
-863 -398 0
863 398 0
-864 -401 0
864 401 0
-865 -404 0
865 404 0
-866 -407 0
866 407 0
-867 -410 0
867 410 0
-868 -413 0
868 413 0
-869 -416 0
869 416 0
-870 -419 0
870 419 0
-871 -422 0
871 422 0
-872 -425 0
872 425 0
-873 -428 0
873 428 0
-874 -431 0
874 431 0
-875 -434 0
875 434 0
-876 -437 0
876 437 0
-877 -440 0
877 440 0
-878 -443 0
878 443 0
-879 -446 0
879 446 0
-880 -449 0
880 449 0
-881 -452 0
881 452 0
-882 -455 0
882 455 0
-883 -458 0
883 458 0
-884 -461 0
884 461 0
-885 -464 0
885 464 0
-886 -467 0
886 467 0
-887 -470 0
887 470 0
-888 -473 0
888 473 0
-889 -475 0
889 475 0
-890 -478 0
890 478 0
-891 -481 0
891 481 0
-892 -484 0
892 484 0
-893 -487 0
893 487 0
-894 -490 0
894 490 0
-895 -493 0
895 493 0
-896 -496 0
896 496 0
-897 -499 0
897 499 0
-898 -502 0
898 502 0
-899 -505 0
899 505 0
-900 -508 0
900 508 0
-901 -511 0
901 511 0
-902 -514 0
902 514 0
-903 -517 0
903 517 0
-904 -520 0
904 520 0
-905 -523 0
905 523 0
-906 -526 0
906 526 0
-907 -529 0
907 529 0
-908 -532 0
908 532 0
-909 -535 0
909 535 0
-910 -538 0
910 538 0
-911 -541 0
911 541 0
-912 -544 0
912 544 0
-913 -547 0
913 547 0
-914 -550 0
914 550 0
-915 -553 0
915 553 0
-916 -556 0
916 556 0
-917 -559 0
917 559 0
-918 -562 0
918 562 0
-919 -565 0
919 565 0
-920 -568 0
920 568 0
-921 -570 0
921 570 0
-922 -573 0
922 573 0
-923 -576 0
923 576 0
-924 -579 0
924 579 0
-925 -582 0
925 582 0
-926 -585 0
926 585 0
-927 -588 0
927 588 0
-928 -591 0
928 591 0
-929 -594 0
929 594 0
-930 -597 0
930 597 0
-931 -600 0
931 600 0
-932 -603 0
932 603 0
-933 -606 0
933 606 0
-934 -609 0
934 609 0
-935 -612 0
935 612 0
-936 -42 0
936 42 0
-937 -615 0
937 615 0
-938 -618 0
938 618 0
-939 -621 0
939 621 0
-940 -624 0
940 624 0
-941 -627 0
941 627 0
-942 -630 0
942 630 0
-943 -633 0
943 633 0
-944 -636 0
944 636 0
-945 -639 0
945 639 0
-946 -642 0
946 642 0
-947 -645 0
947 645 0
-948 -648 0
948 648 0
-949 -651 0
949 651 0
-950 -654 0
950 654 0
-951 -657 0
951 657 0
-952 -660 0
952 660 0
-953 -663 0
953 663 0
-954 -666 0
954 666 0
-955 -668 0
955 668 0
-956 -671 0
956 671 0
-957 -674 0
957 674 0
-958 -677 0
958 677 0
-959 -680 0
959 680 0
-960 -683 0
960 683 0
-961 -685 0
961 685 0
-962 -688 0
962 688 0
-963 -691 0
963 691 0
-964 -694 0
964 694 0
-965 -696 0
965 696 0
697 0
